letting n =  10
letting blocks =  [[1, 8], [2, 1], [3, 3], [3, 4], [3, 7], [3, 8], [3, 9], [4, 4], [5, 2], [5, 3], [5, 8], [5, 9], [6, 2], [6, 4], [6, 6], [7, 3], [7, 10], [8, 1], [8, 3], [8, 4], [9, 2], [9, 4], [9, 8], [10, 2], [10, 3], [10, 7], [10, 8], [10, 9]]
